coords = array2d(1..39, 1..2, [778, 988, 8, 685, 250, 507, 806, 109, 563, 506,
    97, 337, 360, 586, 524, 227, 299, 111, 245, 733, 56, 28, 932, 190,
    30, 788, 977, 629, 757, 394, 747, 569, 586, 638, 893, 992, 237,
    494, 612, 440, 349, 876, 469, 40, 456, 65, 914, 972, 584, 302, 53,
    648, 609, 435, 382, 796, 909, 706, 754, 345, 589, 90, 887, 723,
    528, 944, 609, 134, 754, 189, 370, 291, 13, 664, 214, 251, 573,
    679]);

n = 39;

